param set_len = 30;
param target_sum = 993264;
param values := [1] 97576 [2] 113755 [3] 66852 [4] 108453 [5] 26559 [6] 72635 [7] 10341 [8] 82228 [9] 13016 [10] 55511 [11] 79416 [12] 13149 [13] 111152 [14] 114958 [15] 126294 [16] 115543 [17] 7901 [18] 130461 [19] 4587 [20] 119481 [21] 125024 [22] 24416 [23] 103514 [24] 83821 [25] 43060 [26] 50313 [27] 87487 [28] 90419 [29] 100819 [30] 90340 ;
